50 8
539 561
101 460
676 239
455 825
446 488
831 395
284 439
884 584
96 436
158 313
124 331
308 832
811 509
842 538
752 231
358 434
847 403
369 686
630 160
365 690
519 786
804 927
495 401
749 301
711 103
286 343
376 663
727 411
662 260
956 441
514 554
684 129
698 211
721 856
483 747
827 601
466 828
100 425
348 540
693 232
690 293
913 415
130 445
294 358
538 770
313 821
362 784
229 788
489 702
952 631
